jobs  (incl. supersource/sink ):	52
RESOURCES
- renewable                 : 2 R
- nonrenewable              : 4 N
- doubly constrained        : 0 D
************************************************************************
PRECEDENCE RELATIONS:
jobnr.    #modes  #successors   successors
1	1	16		2 3 4 5 6 8 10 11 12 14 15 18 20 21 23 32 
2	9	7		45 31 30 16 13 9 7 
3	9	13		49 46 45 44 42 34 31 29 27 26 25 24 19 
4	9	9		51 47 46 44 43 28 25 22 17 
5	9	9		47 44 42 38 34 33 28 26 22 
6	9	11		50 45 44 43 42 38 34 33 30 28 25 
7	9	12		49 48 47 46 44 43 42 40 37 34 33 25 
8	9	8		47 46 45 42 36 33 25 24 
9	9	9		50 44 43 42 41 36 33 29 24 
10	9	7		44 42 37 34 29 27 25 
11	9	6		44 40 38 36 26 22 
12	9	10		48 47 45 43 41 40 39 36 35 31 
13	9	9		51 49 47 46 43 39 36 33 29 
14	9	7		49 47 44 40 37 33 27 
15	9	8		49 46 42 39 38 36 35 28 
16	9	7		50 46 43 41 39 36 28 
17	9	7		42 41 40 38 37 34 33 
18	9	7		45 43 42 38 37 36 33 
19	9	5		39 38 37 33 30 
20	9	5		38 37 36 33 25 
21	9	5		44 42 37 36 29 
22	9	6		48 45 41 39 37 35 
23	9	5		46 45 38 36 35 
24	9	4		40 38 37 35 
25	9	3		41 39 35 
26	9	3		43 39 35 
27	9	3		39 38 36 
28	9	2		40 37 
29	9	2		40 35 
30	9	2		41 36 
31	9	2		38 37 
32	9	2		37 36 
33	9	1		35 
34	9	1		36 
35	9	1		52 
36	9	1		52 
37	9	1		52 
38	9	1		52 
39	9	1		52 
40	9	1		52 
41	9	1		52 
42	9	1		52 
43	9	1		52 
44	9	1		52 
45	9	1		52 
46	9	1		52 
47	9	1		52 
48	9	1		52 
49	9	1		52 
50	9	1		52 
51	9	1		52 
52	1	0		
************************************************************************
REQUESTS/DURATIONS
jobnr.	mode	dur	R1	R2	N1	N2	N3	N4	
------------------------------------------------------------------------
1	1	0	0	0	0	0	0	0	
2	1	1	2	2	4	27	20	16	
	2	5	2	2	4	25	20	16	
	3	9	2	2	3	23	18	16	
	4	10	2	2	3	21	17	16	
	5	14	1	2	3	21	17	16	
	6	15	1	1	2	18	15	15	
	7	26	1	1	1	17	14	15	
	8	27	1	1	1	13	13	15	
	9	29	1	1	1	13	12	15	
3	1	1	1	4	21	18	1	8	
	2	5	1	3	18	16	1	8	
	3	9	1	3	18	15	1	8	
	4	17	1	3	15	14	1	8	
	5	21	1	3	13	14	1	8	
	6	24	1	3	9	12	1	7	
	7	25	1	3	7	10	1	7	
	8	28	1	3	5	9	1	7	
	9	29	1	3	4	9	1	7	
4	1	8	3	5	22	17	23	16	
	2	9	3	4	22	16	20	15	
	3	13	3	4	22	16	20	14	
	4	18	3	3	21	15	19	13	
	5	19	3	2	21	15	17	13	
	6	23	3	2	20	15	14	12	
	7	24	3	2	19	15	14	10	
	8	26	3	1	19	14	10	9	
	9	30	3	1	19	14	10	8	
5	1	1	4	4	14	20	5	16	
	2	7	4	3	13	20	5	14	
	3	11	3	3	12	16	5	12	
	4	12	3	3	10	16	5	11	
	5	20	3	3	7	12	5	9	
	6	23	2	3	7	10	4	8	
	7	26	2	3	4	10	4	7	
	8	27	1	3	4	8	4	4	
	9	30	1	3	2	6	4	3	
6	1	5	3	5	28	28	30	21	
	2	6	2	5	28	28	26	20	
	3	8	2	5	27	28	22	19	
	4	21	2	5	27	28	22	18	
	5	22	2	5	26	28	17	18	
	6	23	2	5	26	28	14	17	
	7	24	2	5	26	28	12	16	
	8	28	2	5	25	28	11	16	
	9	29	2	5	25	28	7	15	
7	1	4	4	2	8	21	1	13	
	2	5	4	2	8	21	1	12	
	3	9	4	2	6	21	1	11	
	4	15	4	2	6	20	1	10	
	5	20	3	1	5	19	1	9	
	6	21	3	1	4	19	1	8	
	7	22	2	1	4	18	1	7	
	8	25	2	1	2	18	1	6	
	9	30	2	1	2	18	1	5	
8	1	5	4	4	24	10	15	12	
	2	9	4	4	24	9	13	11	
	3	10	4	4	21	9	13	9	
	4	12	4	3	16	9	11	8	
	5	13	3	3	13	9	11	8	
	6	23	3	3	12	9	9	7	
	7	24	3	3	7	9	8	6	
	8	28	3	2	5	9	7	4	
	9	29	3	2	2	9	7	4	
9	1	2	2	3	21	24	21	10	
	2	4	2	3	20	23	21	9	
	3	5	2	3	18	23	20	8	
	4	6	2	3	15	23	19	7	
	5	10	2	3	15	22	19	7	
	6	12	2	3	10	22	18	7	
	7	14	2	3	9	22	18	5	
	8	15	2	3	8	22	17	4	
	9	18	2	3	6	22	17	4	
10	1	3	1	3	23	20	20	14	
	2	12	1	3	22	18	19	14	
	3	14	1	3	21	15	17	14	
	4	21	1	3	20	15	17	14	
	5	22	1	3	19	12	14	14	
	6	23	1	2	19	11	13	14	
	7	25	1	2	18	8	10	14	
	8	28	1	2	16	7	8	14	
	9	29	1	2	16	3	7	14	
11	1	2	5	2	24	23	11	26	
	2	11	4	2	22	22	11	24	
	3	19	4	2	18	19	11	22	
	4	20	4	2	17	19	11	20	
	5	22	3	2	16	17	10	17	
	6	23	3	2	11	15	10	15	
	7	24	3	2	10	11	10	13	
	8	29	3	2	7	11	10	11	
	9	30	3	2	5	8	10	8	
12	1	4	3	5	27	11	23	17	
	2	8	2	5	25	9	21	16	
	3	15	2	5	23	8	19	16	
	4	18	2	5	21	7	16	16	
	5	20	2	5	20	7	12	16	
	6	21	2	5	17	5	12	16	
	7	23	2	5	13	3	8	16	
	8	24	2	5	12	3	7	16	
	9	25	2	5	10	1	3	16	
13	1	4	3	3	29	24	12	16	
	2	11	2	3	27	23	12	14	
	3	19	2	3	26	23	12	12	
	4	21	2	3	22	22	11	12	
	5	22	2	3	22	21	11	9	
	6	25	1	3	20	19	11	8	
	7	26	1	3	18	18	10	8	
	8	27	1	3	15	18	10	6	
	9	30	1	3	14	17	10	6	
14	1	2	3	4	28	14	16	5	
	2	10	2	3	27	12	15	5	
	3	12	2	3	27	11	14	5	
	4	16	2	3	26	11	14	5	
	5	17	2	3	26	10	12	5	
	6	23	2	2	26	8	11	5	
	7	25	2	2	25	7	11	5	
	8	26	2	2	25	5	10	5	
	9	27	2	2	25	5	9	5	
15	1	4	3	4	8	27	2	20	
	2	6	2	3	7	23	2	18	
	3	9	2	3	7	21	2	17	
	4	18	2	3	7	18	2	15	
	5	19	2	3	7	16	2	12	
	6	20	1	3	7	15	2	10	
	7	22	1	3	7	10	2	9	
	8	24	1	3	7	9	2	6	
	9	27	1	3	7	8	2	5	
16	1	6	5	3	19	17	29	30	
	2	7	4	3	15	14	29	29	
	3	9	4	3	14	13	29	29	
	4	10	4	3	12	13	29	28	
	5	11	4	3	12	12	28	28	
	6	12	4	3	9	10	28	28	
	7	13	4	3	9	9	28	28	
	8	14	4	3	6	7	27	27	
	9	24	4	3	4	7	27	27	
17	1	7	4	5	22	14	27	9	
	2	8	3	4	21	13	24	9	
	3	9	3	4	19	13	23	9	
	4	13	2	3	18	11	21	9	
	5	16	2	3	16	10	19	9	
	6	17	2	2	15	9	16	9	
	7	18	1	2	14	9	13	9	
	8	19	1	1	14	8	11	9	
	9	22	1	1	13	7	8	9	
18	1	2	4	1	15	20	21	28	
	2	3	3	1	15	19	19	28	
	3	4	3	1	15	19	19	27	
	4	5	3	1	15	18	15	28	
	5	14	3	1	15	15	15	28	
	6	15	2	1	15	14	12	28	
	7	16	2	1	15	13	11	28	
	8	25	2	1	15	11	8	28	
	9	28	2	1	15	10	8	28	
19	1	2	3	1	14	23	19	11	
	2	5	3	1	14	20	19	11	
	3	12	3	1	14	20	16	10	
	4	17	3	1	14	19	15	9	
	5	18	2	1	14	16	15	9	
	6	19	2	1	14	15	12	8	
	7	20	2	1	14	13	12	7	
	8	23	2	1	14	12	10	6	
	9	29	2	1	14	9	8	6	
20	1	3	4	5	29	13	18	27	
	2	8	3	4	26	13	17	26	
	3	10	3	4	25	13	17	26	
	4	15	3	4	23	13	17	26	
	5	16	2	4	21	13	17	25	
	6	17	2	3	19	13	17	25	
	7	23	1	3	17	13	17	25	
	8	25	1	3	16	13	17	25	
	9	26	1	3	14	13	17	25	
21	1	1	5	3	10	20	10	13	
	2	2	4	2	9	19	9	12	
	3	4	4	2	9	18	9	11	
	4	7	4	2	9	16	8	10	
	5	11	3	2	9	16	8	9	
	6	13	3	2	9	15	8	7	
	7	16	3	2	9	13	7	7	
	8	20	3	2	9	13	7	6	
	9	24	3	2	9	12	7	4	
22	1	13	3	4	26	10	28	29	
	2	14	3	3	24	9	28	29	
	3	17	3	3	23	8	28	28	
	4	18	3	3	22	8	28	27	
	5	19	3	3	22	5	27	26	
	6	20	3	2	20	4	27	26	
	7	27	3	2	20	4	26	24	
	8	28	3	2	19	2	26	24	
	9	30	3	2	17	2	26	23	
23	1	2	2	3	26	27	21	28	
	2	3	2	3	25	23	19	26	
	3	5	2	3	21	20	17	25	
	4	10	2	3	21	19	15	25	
	5	11	2	3	18	16	14	24	
	6	12	2	3	18	10	12	23	
	7	13	2	3	14	9	12	21	
	8	14	2	3	13	4	9	20	
	9	30	2	3	12	1	9	20	
24	1	7	2	3	18	13	18	8	
	2	9	2	2	18	13	17	8	
	3	13	2	2	18	12	16	8	
	4	14	2	2	17	11	16	8	
	5	21	2	2	17	11	15	8	
	6	23	2	2	16	10	15	8	
	7	24	2	2	16	10	14	8	
	8	26	2	2	15	9	14	8	
	9	27	2	2	15	9	14	7	
25	1	3	4	5	14	7	25	21	
	2	6	4	4	12	7	23	19	
	3	8	3	4	11	7	23	19	
	4	12	3	4	10	6	22	16	
	5	13	2	4	9	6	22	13	
	6	14	2	4	7	6	21	11	
	7	22	2	4	6	6	20	9	
	8	25	1	4	5	5	19	5	
	9	27	1	4	4	5	19	3	
26	1	1	4	3	29	12	24	13	
	2	2	4	2	27	12	19	12	
	3	19	4	2	24	12	17	11	
	4	24	4	2	20	12	14	11	
	5	25	4	1	17	12	13	10	
	6	26	4	1	15	12	10	9	
	7	27	4	1	12	12	8	8	
	8	28	4	1	11	12	5	7	
	9	30	4	1	8	12	2	7	
27	1	3	5	5	30	20	19	9	
	2	7	4	4	27	19	18	9	
	3	12	4	4	26	15	16	9	
	4	16	4	4	24	14	15	9	
	5	17	3	4	20	12	12	9	
	6	20	3	4	20	8	9	9	
	7	21	2	4	17	5	9	9	
	8	24	2	4	15	5	5	9	
	9	26	2	4	13	1	4	9	
28	1	1	3	3	17	9	26	22	
	2	6	3	3	17	7	25	18	
	3	7	3	3	17	6	24	15	
	4	8	3	3	17	6	23	13	
	5	9	2	3	17	5	22	13	
	6	14	2	3	17	5	22	9	
	7	23	2	3	17	3	21	7	
	8	24	1	3	17	3	20	5	
	9	25	1	3	17	2	19	4	
29	1	7	5	2	24	25	17	21	
	2	8	4	2	23	23	16	17	
	3	12	4	2	21	22	16	16	
	4	13	4	2	20	22	16	13	
	5	14	4	2	19	21	15	12	
	6	16	4	2	17	20	15	12	
	7	17	4	2	15	19	15	8	
	8	18	4	2	13	17	15	8	
	9	25	4	2	13	16	15	5	
30	1	2	3	2	23	11	30	20	
	2	6	3	2	23	11	29	20	
	3	7	3	2	23	11	29	18	
	4	10	2	2	23	11	29	17	
	5	17	2	2	22	10	29	17	
	6	22	2	1	22	10	28	15	
	7	25	2	1	22	9	28	14	
	8	26	1	1	22	9	28	14	
	9	27	1	1	22	9	28	12	
31	1	4	2	4	23	6	28	26	
	2	10	1	3	22	5	26	26	
	3	11	1	3	21	4	21	24	
	4	12	1	2	17	4	18	19	
	5	13	1	2	17	3	16	18	
	6	14	1	2	14	3	16	16	
	7	23	1	1	14	3	12	14	
	8	28	1	1	10	2	11	10	
	9	29	1	1	9	2	8	9	
32	1	2	4	5	22	26	27	25	
	2	4	4	5	21	24	25	25	
	3	7	4	5	21	23	22	23	
	4	9	3	5	21	22	22	21	
	5	20	2	5	21	20	19	21	
	6	22	2	5	21	19	18	19	
	7	23	1	5	21	19	17	17	
	8	27	1	5	21	18	14	17	
	9	28	1	5	21	17	13	15	
33	1	2	5	4	17	17	7	23	
	2	9	4	4	17	16	6	22	
	3	13	4	4	17	15	5	22	
	4	14	4	4	16	13	5	22	
	5	18	3	4	16	11	4	21	
	6	22	3	4	15	9	4	21	
	7	25	3	4	15	7	4	21	
	8	26	2	4	14	7	3	21	
	9	27	2	4	14	6	3	21	
34	1	2	4	3	18	27	7	29	
	2	3	4	2	18	24	6	29	
	3	6	4	2	14	22	5	28	
	4	10	4	2	14	20	5	28	
	5	11	3	2	12	19	3	27	
	6	17	3	1	9	17	3	27	
	7	22	3	1	7	16	2	27	
	8	25	3	1	4	14	2	26	
	9	27	3	1	4	12	1	26	
35	1	2	4	4	29	26	25	21	
	2	12	4	4	29	25	23	21	
	3	13	4	4	29	20	22	21	
	4	18	4	4	29	16	21	21	
	5	22	4	3	29	13	21	21	
	6	24	4	3	29	10	20	21	
	7	25	4	3	29	9	19	21	
	8	26	4	2	29	4	18	21	
	9	30	4	2	29	4	16	21	
36	1	7	2	2	7	30	18	27	
	2	13	2	2	7	29	17	27	
	3	21	2	2	7	28	17	26	
	4	22	2	2	7	28	17	24	
	5	23	2	2	7	27	17	23	
	6	24	2	2	7	27	16	22	
	7	25	2	2	7	26	16	22	
	8	26	2	2	7	26	16	20	
	9	30	2	2	7	26	16	19	
37	1	1	2	4	11	27	25	5	
	2	3	1	4	9	27	21	4	
	3	6	1	4	8	26	19	4	
	4	9	1	4	7	25	17	4	
	5	16	1	3	6	25	14	3	
	6	17	1	3	5	24	12	3	
	7	19	1	3	3	24	11	3	
	8	22	1	3	3	23	8	3	
	9	30	1	3	2	22	5	3	
38	1	6	2	4	26	20	28	15	
	2	10	2	3	26	17	27	13	
	3	15	2	3	25	16	25	12	
	4	16	2	3	23	16	23	11	
	5	17	2	2	22	14	21	11	
	6	18	2	2	22	13	17	9	
	7	23	2	2	20	12	14	8	
	8	29	2	2	19	10	13	8	
	9	30	2	2	19	9	12	6	
39	1	7	5	2	25	26	19	15	
	2	10	4	2	21	22	18	14	
	3	14	3	2	20	22	18	13	
	4	15	3	2	15	21	18	13	
	5	16	3	2	15	18	17	12	
	6	21	2	2	12	16	17	12	
	7	23	1	2	10	15	16	11	
	8	24	1	2	7	15	16	11	
	9	25	1	2	6	12	16	11	
40	1	8	1	5	17	30	16	29	
	2	9	1	4	17	28	15	28	
	3	12	1	4	15	27	15	27	
	4	14	1	4	14	27	15	26	
	5	15	1	4	14	25	13	26	
	6	20	1	4	13	24	13	26	
	7	26	1	4	12	24	13	25	
	8	27	1	4	10	22	11	25	
	9	28	1	4	10	22	11	24	
41	1	2	4	4	23	22	11	26	
	2	3	3	4	20	22	9	25	
	3	4	3	3	20	21	9	25	
	4	5	3	3	16	19	8	24	
	5	9	2	3	15	18	5	24	
	6	14	2	2	11	17	4	23	
	7	16	2	2	8	16	4	23	
	8	22	1	1	7	14	3	23	
	9	26	1	1	5	13	2	22	
42	1	2	3	3	16	26	22	11	
	2	6	3	3	14	23	20	10	
	3	11	3	3	13	20	19	9	
	4	12	3	3	12	17	16	9	
	5	16	2	3	11	16	15	7	
	6	23	2	3	9	13	11	6	
	7	28	2	3	9	12	9	4	
	8	29	1	3	7	9	8	3	
	9	30	1	3	6	6	5	2	
43	1	1	5	4	28	22	10	24	
	2	2	4	4	27	19	9	20	
	3	4	4	4	27	18	9	18	
	4	6	4	4	27	17	9	16	
	5	16	4	4	26	13	9	16	
	6	18	4	4	26	12	9	14	
	7	22	4	4	26	10	9	12	
	8	24	4	4	26	7	9	8	
	9	25	4	4	26	6	9	8	
44	1	10	5	4	22	12	17	19	
	2	13	4	4	20	11	14	17	
	3	14	4	4	17	10	13	16	
	4	15	4	3	14	9	13	16	
	5	16	4	2	12	8	11	15	
	6	22	4	2	10	8	10	15	
	7	24	4	1	6	7	9	14	
	8	26	4	1	6	6	8	12	
	9	29	4	1	2	6	8	12	
45	1	10	3	4	24	24	16	30	
	2	14	3	4	24	21	15	26	
	3	15	3	4	19	19	15	24	
	4	16	2	3	19	19	14	24	
	5	18	2	3	17	17	13	21	
	6	24	2	2	13	16	13	19	
	7	25	1	1	10	14	13	18	
	8	26	1	1	7	13	12	15	
	9	29	1	1	7	12	11	13	
46	1	2	3	3	15	13	12	25	
	2	3	3	3	13	12	11	22	
	3	4	3	3	12	11	10	21	
	4	8	3	3	11	9	10	19	
	5	9	2	3	11	9	8	19	
	6	13	2	3	10	8	8	18	
	7	16	1	3	8	7	8	15	
	8	22	1	3	8	5	7	14	
	9	23	1	3	6	5	6	12	
47	1	5	3	4	26	9	29	27	
	2	6	2	4	21	7	27	27	
	3	7	2	4	19	7	26	26	
	4	8	2	4	18	7	25	25	
	5	11	2	3	15	6	24	23	
	6	21	2	3	14	5	23	23	
	7	22	2	3	10	5	23	21	
	8	23	2	3	8	3	22	20	
	9	27	2	3	7	3	21	20	
48	1	6	4	3	26	19	27	22	
	2	7	3	3	24	17	26	21	
	3	12	3	3	21	14	26	20	
	4	13	3	3	18	14	26	19	
	5	14	3	3	16	10	25	19	
	6	15	3	3	12	8	24	17	
	7	18	3	3	11	8	24	16	
	8	19	3	3	6	6	23	16	
	9	25	3	3	4	3	23	15	
49	1	1	5	4	17	28	16	29	
	2	4	4	4	17	26	16	27	
	3	7	4	4	14	25	15	25	
	4	15	3	3	12	23	15	23	
	5	22	3	2	9	22	13	22	
	6	23	3	2	9	22	13	21	
	7	25	3	2	7	21	13	20	
	8	26	2	1	3	19	11	16	
	9	27	2	1	2	19	11	15	
50	1	2	5	4	24	25	19	16	
	2	3	5	4	23	23	17	16	
	3	4	5	4	23	22	15	16	
	4	7	5	4	23	19	15	16	
	5	11	5	4	21	17	13	15	
	6	18	5	4	21	14	11	15	
	7	23	5	4	20	12	10	15	
	8	26	5	4	19	12	9	14	
	9	28	5	4	19	8	8	14	
51	1	17	2	3	14	27	8	27	
	2	19	2	2	12	27	6	24	
	3	21	2	2	11	25	6	20	
	4	22	2	2	10	25	6	19	
	5	24	2	2	9	23	5	17	
	6	25	2	1	8	22	4	13	
	7	27	2	1	7	21	3	12	
	8	28	2	1	6	21	3	8	
	9	29	2	1	6	20	2	6	
52	1	0	0	0	0	0	0	0	
************************************************************************

 RESOURCE AVAILABILITIES 
	R 1	R 2	N 1	N 2	N 3	N 4
	30	32	905	867	818	878

************************************************************************
